benchmarks/ising_models/Random/J=1/150nodes_3deg_random_graph.wcnf
p wcnf 373 892
w -2 0.367879 0
w 2 2.718282 0
w -3 0.367879 0
w 3 2.718282 0
w -4 0.367879 0
w 4 2.718282 0
w -5 0.367879 0
w 5 2.718282 0
w -7 0.367879 0
w 7 2.718282 0
w -8 0.367879 0
w 8 2.718282 0
w -10 0.367879 0
w 10 2.718282 0
w -11 0.367879 0
w 11 2.718282 0
w -13 0.367879 0
w 13 2.718282 0
w -14 0.367879 0
w 14 2.718282 0
w -15 0.367879 0
w 15 2.718282 0
w -16 0.367879 0
w 16 2.718282 0
w -17 0.367879 0
w 17 2.718282 0
w -19 0.367879 0
w 19 2.718282 0
w -20 0.367879 0
w 20 2.718282 0
w -21 0.367879 0
w 21 2.718282 0
w -22 0.367879 0
w 22 2.718282 0
w -23 0.367879 0
w 23 2.718282 0
w -24 0.367879 0
w 24 2.718282 0
w -26 0.367879 0
w 26 2.718282 0
w -27 0.367879 0
w 27 2.718282 0
w -29 0.367879 0
w 29 2.718282 0
w -31 0.367879 0
w 31 2.718282 0
w -33 0.367879 0
w 33 2.718282 0
w -34 0.367879 0
w 34 2.718282 0
w -35 0.367879 0
w 35 2.718282 0
w -36 0.367879 0
w 36 2.718282 0
w -37 0.367879 0
w 37 2.718282 0
w -39 0.367879 0
w 39 2.718282 0
w -41 0.367879 0
w 41 2.718282 0
w -42 0.367879 0
w 42 2.718282 0
w -43 0.367879 0
w 43 2.718282 0
w -44 0.367879 0
w 44 2.718282 0
w -46 0.367879 0
w 46 2.718282 0
w -47 0.367879 0
w 47 2.718282 0
w -48 0.367879 0
w 48 2.718282 0
w -49 0.367879 0
w 49 2.718282 0
w -51 0.367879 0
w 51 2.718282 0
w -52 0.367879 0
w 52 2.718282 0
w -53 0.367879 0
w 53 2.718282 0
w -54 0.367879 0
w 54 2.718282 0
w -56 0.367879 0
w 56 2.718282 0
w -57 0.367879 0
w 57 2.718282 0
w -58 0.367879 0
w 58 2.718282 0
w -60 0.367879 0
w 60 2.718282 0
w -61 0.367879 0
w 61 2.718282 0
w -64 0.367879 0
w 64 2.718282 0
w -65 0.367879 0
w 65 2.718282 0
w -66 0.367879 0
w 66 2.718282 0
w -67 0.367879 0
w 67 2.718282 0
w -68 0.367879 0
w 68 2.718282 0
w -69 0.367879 0
w 69 2.718282 0
w -70 0.367879 0
w 70 2.718282 0
w -72 0.367879 0
w 72 2.718282 0
w -73 0.367879 0
w 73 2.718282 0
w -74 0.367879 0
w 74 2.718282 0
w -75 0.367879 0
w 75 2.718282 0
w -76 0.367879 0
w 76 2.718282 0
w -78 0.367879 0
w 78 2.718282 0
w -79 0.367879 0
w 79 2.718282 0
w -82 0.367879 0
w 82 2.718282 0
w -83 0.367879 0
w 83 2.718282 0
w -84 0.367879 0
w 84 2.718282 0
w -85 0.367879 0
w 85 2.718282 0
w -87 0.367879 0
w 87 2.718282 0
w -88 0.367879 0
w 88 2.718282 0
w -89 0.367879 0
w 89 2.718282 0
w -91 0.367879 0
w 91 2.718282 0
w -92 0.367879 0
w 92 2.718282 0
w -94 0.367879 0
w 94 2.718282 0
w -96 0.367879 0
w 96 2.718282 0
w -97 0.367879 0
w 97 2.718282 0
w -98 0.367879 0
w 98 2.718282 0
w -100 0.367879 0
w 100 2.718282 0
w -101 0.367879 0
w 101 2.718282 0
w -102 0.367879 0
w 102 2.718282 0
w -104 0.367879 0
w 104 2.718282 0
w -105 0.367879 0
w 105 2.718282 0
w -106 0.367879 0
w 106 2.718282 0
w -107 0.367879 0
w 107 2.718282 0
w -108 0.367879 0
w 108 2.718282 0
w -111 0.367879 0
w 111 2.718282 0
w -114 0.367879 0
w 114 2.718282 0
w -116 0.367879 0
w 116 2.718282 0
w -117 0.367879 0
w 117 2.718282 0
w -119 0.367879 0
w 119 2.718282 0
w -120 0.367879 0
w 120 2.718282 0
w -122 0.367879 0
w 122 2.718282 0
w -123 0.367879 0
w 123 2.718282 0
w -124 0.367879 0
w 124 2.718282 0
w -125 0.367879 0
w 125 2.718282 0
w -127 0.367879 0
w 127 2.718282 0
w -128 0.367879 0
w 128 2.718282 0
w -130 0.367879 0
w 130 2.718282 0
w -132 0.367879 0
w 132 2.718282 0
w -134 0.367879 0
w 134 2.718282 0
w -135 0.367879 0
w 135 2.718282 0
w -136 0.367879 0
w 136 2.718282 0
w -139 0.367879 0
w 139 2.718282 0
w -140 0.367879 0
w 140 2.718282 0
w -141 0.367879 0
w 141 2.718282 0
w -143 0.367879 0
w 143 2.718282 0
w -144 0.367879 0
w 144 2.718282 0
w -146 0.367879 0
w 146 2.718282 0
w -147 0.367879 0
w 147 2.718282 0
w -149 0.367879 0
w 149 2.718282 0
w -150 0.367879 0
w 150 2.718282 0
w -151 0.367879 0
w 151 2.718282 0
w -152 0.367879 0
w 152 2.718282 0
w -154 0.367879 0
w 154 2.718282 0
w -155 0.367879 0
w 155 2.718282 0
w -156 0.367879 0
w 156 2.718282 0
w -158 0.367879 0
w 158 2.718282 0
w -159 0.367879 0
w 159 2.718282 0
w -161 0.367879 0
w 161 2.718282 0
w -162 0.367879 0
w 162 2.718282 0
w -164 0.367879 0
w 164 2.718282 0
w -165 0.367879 0
w 165 2.718282 0
w -167 0.367879 0
w 167 2.718282 0
w -169 0.367879 0
w 169 2.718282 0
w -170 0.367879 0
w 170 2.718282 0
w -172 0.367879 0
w 172 2.718282 0
w -173 0.367879 0
w 173 2.718282 0
w -174 0.367879 0
w 174 2.718282 0
w -175 0.367879 0
w 175 2.718282 0
w -178 0.367879 0
w 178 2.718282 0
w -180 0.367879 0
w 180 2.718282 0
w -181 0.367879 0
w 181 2.718282 0
w -182 0.367879 0
w 182 2.718282 0
w -184 0.367879 0
w 184 2.718282 0
w -185 0.367879 0
w 185 2.718282 0
w -186 0.367879 0
w 186 2.718282 0
w -187 0.367879 0
w 187 2.718282 0
w -189 0.367879 0
w 189 2.718282 0
w -191 0.367879 0
w 191 2.718282 0
w -192 0.367879 0
w 192 2.718282 0
w -194 0.367879 0
w 194 2.718282 0
w -195 0.367879 0
w 195 2.718282 0
w -196 0.367879 0
w 196 2.718282 0
w -197 0.367879 0
w 197 2.718282 0
w -199 0.367879 0
w 199 2.718282 0
w -202 0.367879 0
w 202 2.718282 0
w -206 0.367879 0
w 206 2.718282 0
w -207 0.367879 0
w 207 2.718282 0
w -209 0.367879 0
w 209 2.718282 0
w -210 0.367879 0
w 210 2.718282 0
w -211 0.367879 0
w 211 2.718282 0
w -212 0.367879 0
w 212 2.718282 0
w -215 0.367879 0
w 215 2.718282 0
w -216 0.367879 0
w 216 2.718282 0
w -217 0.367879 0
w 217 2.718282 0
w -219 0.367879 0
w 219 2.718282 0
w -220 0.367879 0
w 220 2.718282 0
w -224 0.367879 0
w 224 2.718282 0
w -226 0.367879 0
w 226 2.718282 0
w -227 0.367879 0
w 227 2.718282 0
w -229 0.367879 0
w 229 2.718282 0
w -231 0.367879 0
w 231 2.718282 0
w -232 0.367879 0
w 232 2.718282 0
w -233 0.367879 0
w 233 2.718282 0
w -236 0.367879 0
w 236 2.718282 0
w -237 0.367879 0
w 237 2.718282 0
w -238 0.367879 0
w 238 2.718282 0
w -240 0.367879 0
w 240 2.718282 0
w -241 0.367879 0
w 241 2.718282 0
w -243 0.367879 0
w 243 2.718282 0
w -245 0.367879 0
w 245 2.718282 0
w -248 0.367879 0
w 248 2.718282 0
w -250 0.367879 0
w 250 2.718282 0
w -251 0.367879 0
w 251 2.718282 0
w -252 0.367879 0
w 252 2.718282 0
w -255 0.367879 0
w 255 2.718282 0
w -256 0.367879 0
w 256 2.718282 0
w -258 0.367879 0
w 258 2.718282 0
w -260 0.367879 0
w 260 2.718282 0
w -261 0.367879 0
w 261 2.718282 0
w -263 0.367879 0
w 263 2.718282 0
w -264 0.367879 0
w 264 2.718282 0
w -267 0.367879 0
w 267 2.718282 0
w -268 0.367879 0
w 268 2.718282 0
w -269 0.367879 0
w 269 2.718282 0
w -271 0.367879 0
w 271 2.718282 0
w -272 0.367879 0
w 272 2.718282 0
w -276 0.367879 0
w 276 2.718282 0
w -278 0.367879 0
w 278 2.718282 0
w -280 0.367879 0
w 280 2.718282 0
w -281 0.367879 0
w 281 2.718282 0
w -283 0.367879 0
w 283 2.718282 0
w -284 0.367879 0
w 284 2.718282 0
w -285 0.367879 0
w 285 2.718282 0
w -287 0.367879 0
w 287 2.718282 0
w -291 0.367879 0
w 291 2.718282 0
w -293 0.367879 0
w 293 2.718282 0
w -294 0.367879 0
w 294 2.718282 0
w -295 0.367879 0
w 295 2.718282 0
w -296 0.367879 0
w 296 2.718282 0
w -303 0.367879 0
w 303 2.718282 0
w -304 0.367879 0
w 304 2.718282 0
w -306 0.367879 0
w 306 2.718282 0
w -307 0.367879 0
w 307 2.718282 0
w -308 0.367879 0
w 308 2.718282 0
w -310 0.367879 0
w 310 2.718282 0
w -311 0.367879 0
w 311 2.718282 0
w -313 0.367879 0
w 313 2.718282 0
w -314 0.367879 0
w 314 2.718282 0
w -316 0.367879 0
w 316 2.718282 0
w -318 0.367879 0
w 318 2.718282 0
w -320 0.367879 0
w 320 2.718282 0
w -323 0.367879 0
w 323 2.718282 0
w -325 0.367879 0
w 325 2.718282 0
w -327 0.367879 0
w 327 2.718282 0
w -329 0.367879 0
w 329 2.718282 0
w -333 0.367879 0
w 333 2.718282 0
w -334 0.367879 0
w 334 2.718282 0
w -335 0.367879 0
w 335 2.718282 0
w -337 0.367879 0
w 337 2.718282 0
w -342 0.367879 0
w 342 2.718282 0
w -343 0.367879 0
w 343 2.718282 0
w -347 0.367879 0
w 347 2.718282 0
w -349 0.367879 0
w 349 2.718282 0
w -350 0.367879 0
w 350 2.718282 0
w -353 0.367879 0
w 353 2.718282 0
w -356 0.367879 0
w 356 2.718282 0
2 1 80 0
2 -1 -80 0
-2 1 -80 0
-2 -1 80 0
3 1 118 0
3 -1 -118 0
-3 1 -118 0
-3 -1 118 0
4 1 326 0
4 -1 -326 0
-4 1 -326 0
-4 -1 326 0
5 1 362 0
5 -1 -362 0
-5 1 -362 0
-5 -1 362 0
7 6 153 0
7 -6 -153 0
-7 6 -153 0
-7 -6 153 0
8 6 160 0
8 -6 -160 0
-8 6 -160 0
-8 -6 160 0
10 9 40 0
10 -9 -40 0
-10 9 -40 0
-10 -9 40 0
11 9 163 0
11 -9 -163 0
-11 9 -163 0
-11 -9 163 0
13 12 157 0
13 -12 -157 0
-13 12 -157 0
-13 -12 157 0
14 12 242 0
14 -12 -242 0
-14 12 -242 0
-14 -12 242 0
15 12 254 0
15 -12 -254 0
-15 12 -254 0
-15 -12 254 0
16 12 259 0
16 -12 -259 0
-16 12 -259 0
-16 -12 259 0
17 12 302 0
17 -12 -302 0
-17 12 -302 0
-17 -12 302 0
19 18 81 0
19 -18 -81 0
-19 18 -81 0
-19 -18 81 0
20 18 201 0
20 -18 -201 0
-20 18 -201 0
-20 -18 201 0
21 18 213 0
21 -18 -213 0
-21 18 -213 0
-21 -18 213 0
22 18 288 0
22 -18 -288 0
-22 18 -288 0
-22 -18 288 0
23 18 309 0
23 -18 -309 0
-23 18 -309 0
-23 -18 309 0
24 18 361 0
24 -18 -361 0
-24 18 -361 0
-24 -18 361 0
26 25 168 0
26 -25 -168 0
-26 25 -168 0
-26 -25 168 0
27 25 200 0
27 -25 -200 0
-27 25 -200 0
-27 -25 200 0
29 28 204 0
29 -28 -204 0
-29 28 -204 0
-29 -28 204 0
31 30 352 0
31 -30 -352 0
-31 30 -352 0
-31 -30 352 0
33 32 103 0
33 -32 -103 0
-33 32 -103 0
-33 -32 103 0
34 32 163 0
34 -32 -163 0
-34 32 -163 0
-34 -32 163 0
35 32 305 0
35 -32 -305 0
-35 32 -305 0
-35 -32 305 0
36 32 359 0
36 -32 -359 0
-36 32 -359 0
-36 -32 359 0
37 32 360 0
37 -32 -360 0
-37 32 -360 0
-37 -32 360 0
39 38 246 0
39 -38 -246 0
-39 38 -246 0
-39 -38 246 0
41 40 138 0
41 -40 -138 0
-41 40 -138 0
-41 -40 138 0
42 40 208 0
42 -40 -208 0
-42 40 -208 0
-42 -40 208 0
43 40 253 0
43 -40 -253 0
-43 40 -253 0
-43 -40 253 0
44 40 257 0
44 -40 -257 0
-44 40 -257 0
-44 -40 257 0
46 45 145 0
46 -45 -145 0
-46 45 -145 0
-46 -45 145 0
47 45 188 0
47 -45 -188 0
-47 45 -188 0
-47 -45 188 0
48 45 273 0
48 -45 -273 0
-48 45 -273 0
-48 -45 273 0
49 45 341 0
49 -45 -341 0
-49 45 -341 0
-49 -45 341 0
51 50 93 0
51 -50 -93 0
-51 50 -93 0
-51 -50 93 0
52 50 166 0
52 -50 -166 0
-52 50 -166 0
-52 -50 166 0
53 50 188 0
53 -50 -188 0
-53 50 -188 0
-53 -50 188 0
54 50 274 0
54 -50 -274 0
-54 50 -274 0
-54 -50 274 0
56 55 131 0
56 -55 -131 0
-56 55 -131 0
-56 -55 131 0
57 55 360 0
57 -55 -360 0
-57 55 -360 0
-57 -55 360 0
58 55 362 0
58 -55 -362 0
-58 55 -362 0
-58 -55 362 0
60 59 118 0
60 -59 -118 0
-60 59 -118 0
-60 -59 118 0
61 59 228 0
61 -59 -228 0
-61 59 -228 0
-61 -59 228 0
64 63 166 0
64 -63 -166 0
-64 63 -166 0
-64 -63 166 0
65 63 213 0
65 -63 -213 0
-65 63 -213 0
-65 -63 213 0
66 63 341 0
66 -63 -341 0
-66 63 -341 0
-66 -63 341 0
67 63 359 0
67 -63 -359 0
-67 63 -359 0
-67 -63 359 0
68 63 362 0
68 -63 -362 0
-68 63 -362 0
-68 -63 362 0
69 63 363 0
69 -63 -363 0
-69 63 -363 0
-69 -63 363 0
70 63 367 0
70 -63 -367 0
-70 63 -367 0
-70 -63 367 0
72 71 138 0
72 -71 -138 0
-72 71 -138 0
-72 -71 138 0
73 71 148 0
73 -71 -148 0
-73 71 -148 0
-73 -71 148 0
74 71 225 0
74 -71 -225 0
-74 71 -225 0
-74 -71 225 0
75 71 341 0
75 -71 -341 0
-75 71 -341 0
-75 -71 341 0
76 71 369 0
76 -71 -369 0
-76 71 -369 0
-76 -71 369 0
78 77 249 0
78 -77 -249 0
-78 77 -249 0
-78 -77 249 0
79 77 322 0
79 -77 -322 0
-79 77 -322 0
-79 -77 322 0
82 81 257 0
82 -81 -257 0
-82 81 -257 0
-82 -81 257 0
83 81 302 0
83 -81 -302 0
-83 81 -302 0
-83 -81 302 0
84 81 344 0
84 -81 -344 0
-84 81 -344 0
-84 -81 344 0
85 81 359 0
85 -81 -359 0
-85 81 -359 0
-85 -81 359 0
87 86 133 0
87 -86 -133 0
-87 86 -133 0
-87 -86 133 0
88 86 302 0
88 -86 -302 0
-88 86 -302 0
-88 -86 302 0
89 86 321 0
89 -86 -321 0
-89 86 -321 0
-89 -86 321 0
91 90 190 0
91 -90 -190 0
-91 90 -190 0
-91 -90 190 0
92 90 265 0
92 -90 -265 0
-92 90 -265 0
-92 -90 265 0
94 93 228 0
94 -93 -228 0
-94 93 -228 0
-94 -93 228 0
96 95 121 0
96 -95 -121 0
-96 95 -121 0
-96 -95 121 0
97 95 138 0
97 -95 -138 0
-97 95 -138 0
-97 -95 138 0
98 95 290 0
98 -95 -290 0
-98 95 -290 0
-98 -95 290 0
100 99 235 0
100 -99 -235 0
-100 99 -235 0
-100 -99 235 0
101 99 315 0
101 -99 -315 0
-101 99 -315 0
-101 -99 315 0
102 99 366 0
102 -99 -366 0
-102 99 -366 0
-102 -99 366 0
104 103 131 0
104 -103 -131 0
-104 103 -131 0
-104 -103 131 0
105 103 301 0
105 -103 -301 0
-105 103 -301 0
-105 -103 301 0
106 103 305 0
106 -103 -305 0
-106 103 -305 0
-106 -103 305 0
107 103 309 0
107 -103 -309 0
-107 103 -309 0
-107 -103 309 0
108 103 355 0
108 -103 -355 0
-108 103 -355 0
-108 -103 355 0
111 110 193 0
111 -110 -193 0
-111 110 -193 0
-111 -110 193 0
114 113 300 0
114 -113 -300 0
-114 113 -300 0
-114 -113 300 0
116 115 225 0
116 -115 -225 0
-116 115 -225 0
-116 -115 225 0
117 115 273 0
117 -115 -273 0
-117 115 -273 0
-117 -115 273 0
119 118 129 0
119 -118 -129 0
-119 118 -129 0
-119 -118 129 0
120 118 266 0
120 -118 -266 0
-120 118 -266 0
-120 -118 266 0
122 121 204 0
122 -121 -204 0
-122 121 -204 0
-122 -121 204 0
123 121 221 0
123 -121 -221 0
-123 121 -221 0
-123 -121 221 0
124 121 330 0
124 -121 -330 0
-124 121 -330 0
-124 -121 330 0
125 121 357 0
125 -121 -357 0
-125 121 -357 0
-125 -121 357 0
127 126 208 0
127 -126 -208 0
-127 126 -208 0
-127 -126 208 0
128 126 324 0
128 -126 -324 0
-128 126 -324 0
-128 -126 324 0
130 129 319 0
130 -129 -319 0
-130 129 -319 0
-130 -129 319 0
132 131 153 0
132 -131 -153 0
-132 131 -153 0
-132 -131 153 0
134 133 190 0
134 -133 -190 0
-134 133 -190 0
-134 -133 190 0
135 133 234 0
135 -133 -234 0
-135 133 -234 0
-135 -133 234 0
136 133 348 0
136 -133 -348 0
-136 133 -348 0
-136 -133 348 0
139 138 203 0
139 -138 -203 0
-139 138 -203 0
-139 -138 203 0
140 138 222 0
140 -138 -222 0
-140 138 -222 0
-140 -138 222 0
141 138 273 0
141 -138 -273 0
-141 138 -273 0
-141 -138 273 0
143 142 299 0
143 -142 -299 0
-143 142 -299 0
-143 -142 299 0
144 142 336 0
144 -142 -336 0
-144 142 -336 0
-144 -142 336 0
146 145 299 0
146 -145 -299 0
-146 145 -299 0
-146 -145 299 0
147 145 359 0
147 -145 -359 0
-147 145 -359 0
-147 -145 359 0
149 148 176 0
149 -148 -176 0
-149 148 -176 0
-149 -148 176 0
150 148 188 0
150 -148 -188 0
-150 148 -188 0
-150 -148 188 0
151 148 244 0
151 -148 -244 0
-151 148 -244 0
-151 -148 244 0
152 148 305 0
152 -148 -305 0
-152 148 -305 0
-152 -148 305 0
154 153 218 0
154 -153 -218 0
-154 153 -218 0
-154 -153 218 0
155 153 275 0
155 -153 -275 0
-155 153 -275 0
-155 -153 275 0
156 153 363 0
156 -153 -363 0
-156 153 -363 0
-156 -153 363 0
158 157 321 0
158 -157 -321 0
-158 157 -321 0
-158 -157 321 0
159 157 357 0
159 -157 -357 0
-159 157 -357 0
-159 -157 357 0
161 160 200 0
161 -160 -200 0
-161 160 -200 0
-161 -160 200 0
162 160 341 0
162 -160 -341 0
-162 160 -341 0
-162 -160 341 0
164 163 321 0
164 -163 -321 0
-164 163 -321 0
-164 -163 321 0
165 163 338 0
165 -163 -338 0
-165 163 -338 0
-165 -163 338 0
167 166 225 0
167 -166 -225 0
-167 166 -225 0
-167 -166 225 0
169 168 352 0
169 -168 -352 0
-169 168 -352 0
-169 -168 352 0
170 168 366 0
170 -168 -366 0
-170 168 -366 0
-170 -168 366 0
172 171 289 0
172 -171 -289 0
-172 171 -289 0
-172 -171 289 0
173 171 301 0
173 -171 -301 0
-173 171 -301 0
-173 -171 301 0
174 171 351 0
174 -171 -351 0
-174 171 -351 0
-174 -171 351 0
175 171 373 0
175 -171 -373 0
-175 171 -373 0
-175 -171 373 0
178 177 301 0
178 -177 -301 0
-178 177 -301 0
-178 -177 301 0
180 179 183 0
180 -179 -183 0
-180 179 -183 0
-180 -179 183 0
181 179 200 0
181 -179 -200 0
-181 179 -200 0
-181 -179 200 0
182 179 246 0
182 -179 -246 0
-182 179 -246 0
-182 -179 246 0
184 183 234 0
184 -183 -234 0
-184 183 -234 0
-184 -183 234 0
185 183 288 0
185 -183 -288 0
-185 183 -288 0
-185 -183 288 0
186 183 330 0
186 -183 -330 0
-186 183 -330 0
-186 -183 330 0
187 183 346 0
187 -183 -346 0
-187 183 -346 0
-187 -183 346 0
189 188 305 0
189 -188 -305 0
-189 188 -305 0
-189 -188 305 0
191 190 253 0
191 -190 -253 0
-191 190 -253 0
-191 -190 253 0
192 190 364 0
192 -190 -364 0
-192 190 -364 0
-192 -190 364 0
194 193 221 0
194 -193 -221 0
-194 193 -221 0
-194 -193 221 0
195 193 319 0
195 -193 -319 0
-195 193 -319 0
-195 -193 319 0
196 193 328 0
196 -193 -328 0
-196 193 -328 0
-196 -193 328 0
197 193 358 0
197 -193 -358 0
-197 193 -358 0
-197 -193 358 0
199 198 338 0
199 -198 -338 0
-199 198 -338 0
-199 -198 338 0
202 201 275 0
202 -201 -275 0
-202 201 -275 0
-202 -201 275 0
206 205 213 0
206 -205 -213 0
-206 205 -213 0
-206 -205 213 0
207 205 351 0
207 -205 -351 0
-207 205 -351 0
-207 -205 351 0
209 208 254 0
209 -208 -254 0
-209 208 -254 0
-209 -208 254 0
210 208 331 0
210 -208 -331 0
-210 208 -331 0
-210 -208 331 0
211 208 361 0
211 -208 -361 0
-211 208 -361 0
-211 -208 361 0
212 208 367 0
212 -208 -367 0
-212 208 -367 0
-212 -208 367 0
215 214 259 0
215 -214 -259 0
-215 214 -259 0
-215 -214 259 0
216 214 339 0
216 -214 -339 0
-216 214 -339 0
-216 -214 339 0
217 214 345 0
217 -214 -345 0
-217 214 -345 0
-217 -214 345 0
219 218 234 0
219 -218 -234 0
-219 218 -234 0
-219 -218 234 0
220 218 274 0
220 -218 -274 0
-220 218 -274 0
-220 -218 274 0
224 223 370 0
224 -223 -370 0
-224 223 -370 0
-224 -223 370 0
226 225 247 0
226 -225 -247 0
-226 225 -247 0
-226 -225 247 0
227 225 373 0
227 -225 -373 0
-227 225 -373 0
-227 -225 373 0
229 228 270 0
229 -228 -270 0
-229 228 -270 0
-229 -228 270 0
231 230 254 0
231 -230 -254 0
-231 230 -254 0
-231 -230 254 0
232 230 279 0
232 -230 -279 0
-232 230 -279 0
-232 -230 279 0
233 230 299 0
233 -230 -299 0
-233 230 -299 0
-233 -230 299 0
236 235 277 0
236 -235 -277 0
-236 235 -277 0
-236 -235 277 0
237 235 321 0
237 -235 -321 0
-237 235 -321 0
-237 -235 321 0
238 235 338 0
238 -235 -338 0
-238 235 -338 0
-238 -235 338 0
240 239 282 0
240 -239 -282 0
-240 239 -282 0
-240 -239 282 0
241 239 341 0
241 -239 -341 0
-241 239 -341 0
-241 -239 341 0
243 242 332 0
243 -242 -332 0
-243 242 -332 0
-243 -242 332 0
245 244 289 0
245 -244 -289 0
-245 244 -289 0
-245 -244 289 0
248 247 297 0
248 -247 -297 0
-248 247 -297 0
-248 -247 297 0
250 249 288 0
250 -249 -288 0
-250 249 -288 0
-250 -249 288 0
251 249 345 0
251 -249 -345 0
-251 249 -345 0
-251 -249 345 0
252 249 371 0
252 -249 -371 0
-252 249 -371 0
-252 -249 371 0
255 254 317 0
255 -254 -317 0
-255 254 -317 0
-255 -254 317 0
256 254 362 0
256 -254 -362 0
-256 254 -362 0
-256 -254 362 0
258 257 363 0
258 -257 -363 0
-258 257 -363 0
-258 -257 363 0
260 259 339 0
260 -259 -339 0
-260 259 -339 0
-260 -259 339 0
261 259 364 0
261 -259 -364 0
-261 259 -364 0
-261 -259 364 0
263 262 340 0
263 -262 -340 0
-263 262 -340 0
-263 -262 340 0
264 262 361 0
264 -262 -361 0
-264 262 -361 0
-264 -262 361 0
267 266 315 0
267 -266 -315 0
-267 266 -315 0
-267 -266 315 0
268 266 324 0
268 -266 -324 0
-268 266 -324 0
-268 -266 324 0
269 266 366 0
269 -266 -366 0
-269 266 -366 0
-269 -266 366 0
271 270 312 0
271 -270 -312 0
-271 270 -312 0
-271 -270 312 0
272 270 351 0
272 -270 -351 0
-272 270 -351 0
-272 -270 351 0
276 275 340 0
276 -275 -340 0
-276 275 -340 0
-276 -275 340 0
278 277 354 0
278 -277 -354 0
-278 277 -354 0
-278 -277 354 0
280 279 326 0
280 -279 -326 0
-280 279 -326 0
-280 -279 326 0
281 279 360 0
281 -279 -360 0
-281 279 -360 0
-281 -279 360 0
283 282 309 0
283 -282 -309 0
-283 282 -309 0
-283 -282 309 0
284 282 341 0
284 -282 -341 0
-284 282 -341 0
-284 -282 341 0
285 282 360 0
285 -282 -360 0
-285 282 -360 0
-285 -282 360 0
287 286 292 0
287 -286 -292 0
-287 286 -292 0
-287 -286 292 0
291 290 338 0
291 -290 -338 0
-291 290 -338 0
-291 -290 338 0
293 292 312 0
293 -292 -312 0
-293 292 -312 0
-293 -292 312 0
294 292 346 0
294 -292 -346 0
-294 292 -346 0
-294 -292 346 0
295 292 355 0
295 -292 -355 0
-295 292 -355 0
-295 -292 355 0
296 292 362 0
296 -292 -362 0
-296 292 -362 0
-296 -292 362 0
303 302 331 0
303 -302 -331 0
-303 302 -331 0
-303 -302 331 0
304 302 354 0
304 -302 -354 0
-304 302 -354 0
-304 -302 354 0
306 305 317 0
306 -305 -317 0
-306 305 -317 0
-306 -305 317 0
307 305 354 0
307 -305 -354 0
-307 305 -354 0
-307 -305 354 0
308 305 371 0
308 -305 -371 0
-308 305 -371 0
-308 -305 371 0
310 309 354 0
310 -309 -354 0
-310 309 -354 0
-310 -309 354 0
311 309 366 0
311 -309 -366 0
-311 309 -366 0
-311 -309 366 0
313 312 332 0
313 -312 -332 0
-313 312 -332 0
-313 -312 332 0
314 312 364 0
314 -312 -364 0
-314 312 -364 0
-314 -312 364 0
316 315 373 0
316 -315 -373 0
-316 315 -373 0
-316 -315 373 0
318 317 336 0
318 -317 -336 0
-318 317 -336 0
-318 -317 336 0
320 319 326 0
320 -319 -326 0
-320 319 -326 0
-320 -319 326 0
323 322 367 0
323 -322 -367 0
-323 322 -367 0
-323 -322 367 0
325 324 354 0
325 -324 -354 0
-325 324 -354 0
-325 -324 354 0
327 326 346 0
327 -326 -346 0
-327 326 -346 0
-327 -326 346 0
329 328 355 0
329 -328 -355 0
-329 328 -355 0
-329 -328 355 0
333 332 345 0
333 -332 -345 0
-333 332 -345 0
-333 -332 345 0
334 332 346 0
334 -332 -346 0
-334 332 -346 0
-334 -332 346 0
335 332 370 0
335 -332 -370 0
-335 332 -370 0
-335 -332 370 0
337 336 360 0
337 -336 -360 0
-337 336 -360 0
-337 -336 360 0
342 341 355 0
342 -341 -355 0
-342 341 -355 0
-342 -341 355 0
343 341 361 0
343 -341 -361 0
-343 341 -361 0
-343 -341 361 0
347 346 364 0
347 -346 -364 0
-347 346 -364 0
-347 -346 364 0
349 348 358 0
349 -348 -358 0
-349 348 -358 0
-349 -348 358 0
350 348 373 0
350 -348 -373 0
-350 348 -373 0
-350 -348 373 0
353 352 372 0
353 -352 -372 0
-353 352 -372 0
-353 -352 372 0
356 355 365 0
356 -355 -365 0
-356 355 -365 0
-356 -355 365 0
