benchmarks/ising_models/Random/J=1/150nodes_3deg_random_graph
ISING
150
2 2 2 2 2 2 2 2 2 2 2 2 2 2 2 2 2 2 2 2 2 2 2 2 2 2 2 2 2 2 2 2 2 2 2 2 2 2 2 2 2 2 2 2 2 2 2 2 2 2 2 2 2 2 2 2 2 2 2 2 2 2 2 2 2 2 2 2 2 2 2 2 2 2 2 2 2 2 2 2 2 2 2 2 2 2 2 2 2 2 2 2 2 2 2 2 2 2 2 2 2 2 2 2 2 2 2 2 2 2 2 2 2 2 2 2 2 2 2 2 2 2 2 2 2 2 2 2 2 2 2 2 2 2 2 2 2 2 2 2 2 2 2 2 2 2 2 2 2 2
0 223 1 1
2 0 19
2 0 32
2 0 115
2 0 138
2 1 43
2 1 45
2 2 10
2 2 46
2 3 44
2 3 76
2 3 82
2 3 84
2 3 105
2 4 20
2 4 59
2 4 64
2 4 96
2 4 107
2 4 137
2 5 48
2 5 58
2 6 61
2 7 130
2 8 26
2 8 46
2 8 106
2 8 135
2 8 136
2 9 78
2 10 39
2 10 63
2 10 81
2 10 83
2 11 41
2 11 54
2 11 89
2 11 124
2 12 23
2 12 47
2 12 54
2 12 90
2 13 36
2 13 136
2 13 138
2 14 32
2 14 71
2 16 47
2 16 64
2 16 124
2 16 135
2 16 138
2 16 139
2 16 143
2 17 39
2 17 42
2 17 70
2 17 124
2 17 145
2 18 80
2 18 113
2 20 83
2 20 105
2 20 125
2 20 135
2 21 37
2 21 105
2 21 112
2 22 55
2 22 86
2 23 71
2 24 33
2 24 39
2 24 98
2 25 74
2 25 109
2 25 142
2 26 36
2 26 104
2 26 106
2 26 107
2 26 132
2 28 56
2 30 103
2 31 70
2 31 89
2 32 35
2 32 87
2 33 61
2 33 67
2 33 117
2 33 133
2 34 63
2 34 114
2 35 111
2 36 43
2 37 55
2 37 73
2 37 128
2 39 60
2 39 68
2 39 89
2 40 102
2 40 120
2 41 102
2 41 135
2 42 50
2 42 54
2 42 77
2 42 106
2 43 66
2 43 91
2 43 139
2 44 112
2 44 133
2 45 58
2 45 124
2 46 112
2 46 121
2 47 70
2 48 130
2 48 142
2 49 97
2 49 104
2 49 129
2 49 149
2 51 104
2 52 53
2 52 58
2 52 78
2 53 73
2 53 96
2 53 117
2 53 127
2 54 106
2 55 81
2 55 140
2 56 67
2 56 111
2 56 116
2 56 134
2 57 121
2 59 91
2 62 64
2 62 129
2 63 82
2 63 118
2 63 137
2 63 143
2 65 84
2 65 122
2 65 126
2 66 73
2 66 90
2 69 146
2 70 79
2 70 149
2 71 88
2 72 82
2 72 93
2 72 102
2 74 92
2 74 112
2 74 121
2 75 94
2 75 124
2 76 119
2 77 97
2 79 100
2 80 96
2 80 126
2 80 147
2 82 110
2 82 138
2 83 139
2 84 122
2 84 140
2 85 123
2 85 137
2 87 109
2 87 114
2 87 142
2 88 108
2 88 129
2 91 123
2 92 131
2 93 115
2 93 136
2 94 107
2 94 124
2 94 136
2 95 99
2 98 121
2 99 108
2 99 127
2 99 132
2 99 138
2 105 118
2 105 131
2 106 110
2 106 131
2 106 147
2 107 131
2 107 142
2 108 119
2 108 140
2 109 149
2 110 120
2 111 115
2 113 143
2 114 131
2 115 127
2 116 132
2 119 126
2 119 127
2 119 146
2 120 136
2 124 132
2 124 137
2 127 140
2 128 134
2 128 149
2 130 148
2 132 141

4
 1.0 -1.0
 -1.0 1.0
4
 1.0 -1.0
 -1.0 1.0
4
 1.0 -1.0
 -1.0 1.0
4
 1.0 -1.0
 -1.0 1.0
4
 1.0 -1.0
 -1.0 1.0
4
 1.0 -1.0
 -1.0 1.0
4
 1.0 -1.0
 -1.0 1.0
4
 1.0 -1.0
 -1.0 1.0
4
 1.0 -1.0
 -1.0 1.0
4
 1.0 -1.0
 -1.0 1.0
4
 1.0 -1.0
 -1.0 1.0
4
 1.0 -1.0
 -1.0 1.0
4
 1.0 -1.0
 -1.0 1.0
4
 1.0 -1.0
 -1.0 1.0
4
 1.0 -1.0
 -1.0 1.0
4
 1.0 -1.0
 -1.0 1.0
4
 1.0 -1.0
 -1.0 1.0
4
 1.0 -1.0
 -1.0 1.0
4
 1.0 -1.0
 -1.0 1.0
4
 1.0 -1.0
 -1.0 1.0
4
 1.0 -1.0
 -1.0 1.0
4
 1.0 -1.0
 -1.0 1.0
4
 1.0 -1.0
 -1.0 1.0
4
 1.0 -1.0
 -1.0 1.0
4
 1.0 -1.0
 -1.0 1.0
4
 1.0 -1.0
 -1.0 1.0
4
 1.0 -1.0
 -1.0 1.0
4
 1.0 -1.0
 -1.0 1.0
4
 1.0 -1.0
 -1.0 1.0
4
 1.0 -1.0
 -1.0 1.0
4
 1.0 -1.0
 -1.0 1.0
4
 1.0 -1.0
 -1.0 1.0
4
 1.0 -1.0
 -1.0 1.0
4
 1.0 -1.0
 -1.0 1.0
4
 1.0 -1.0
 -1.0 1.0
4
 1.0 -1.0
 -1.0 1.0
4
 1.0 -1.0
 -1.0 1.0
4
 1.0 -1.0
 -1.0 1.0
4
 1.0 -1.0
 -1.0 1.0
4
 1.0 -1.0
 -1.0 1.0
4
 1.0 -1.0
 -1.0 1.0
4
 1.0 -1.0
 -1.0 1.0
4
 1.0 -1.0
 -1.0 1.0
4
 1.0 -1.0
 -1.0 1.0
4
 1.0 -1.0
 -1.0 1.0
4
 1.0 -1.0
 -1.0 1.0
4
 1.0 -1.0
 -1.0 1.0
4
 1.0 -1.0
 -1.0 1.0
4
 1.0 -1.0
 -1.0 1.0
4
 1.0 -1.0
 -1.0 1.0
4
 1.0 -1.0
 -1.0 1.0
4
 1.0 -1.0
 -1.0 1.0
4
 1.0 -1.0
 -1.0 1.0
4
 1.0 -1.0
 -1.0 1.0
4
 1.0 -1.0
 -1.0 1.0
4
 1.0 -1.0
 -1.0 1.0
4
 1.0 -1.0
 -1.0 1.0
4
 1.0 -1.0
 -1.0 1.0
4
 1.0 -1.0
 -1.0 1.0
4
 1.0 -1.0
 -1.0 1.0
4
 1.0 -1.0
 -1.0 1.0
4
 1.0 -1.0
 -1.0 1.0
4
 1.0 -1.0
 -1.0 1.0
4
 1.0 -1.0
 -1.0 1.0
4
 1.0 -1.0
 -1.0 1.0
4
 1.0 -1.0
 -1.0 1.0
4
 1.0 -1.0
 -1.0 1.0
4
 1.0 -1.0
 -1.0 1.0
4
 1.0 -1.0
 -1.0 1.0
4
 1.0 -1.0
 -1.0 1.0
4
 1.0 -1.0
 -1.0 1.0
4
 1.0 -1.0
 -1.0 1.0
4
 1.0 -1.0
 -1.0 1.0
4
 1.0 -1.0
 -1.0 1.0
4
 1.0 -1.0
 -1.0 1.0
4
 1.0 -1.0
 -1.0 1.0
4
 1.0 -1.0
 -1.0 1.0
4
 1.0 -1.0
 -1.0 1.0
4
 1.0 -1.0
 -1.0 1.0
4
 1.0 -1.0
 -1.0 1.0
4
 1.0 -1.0
 -1.0 1.0
4
 1.0 -1.0
 -1.0 1.0
4
 1.0 -1.0
 -1.0 1.0
4
 1.0 -1.0
 -1.0 1.0
4
 1.0 -1.0
 -1.0 1.0
4
 1.0 -1.0
 -1.0 1.0
4
 1.0 -1.0
 -1.0 1.0
4
 1.0 -1.0
 -1.0 1.0
4
 1.0 -1.0
 -1.0 1.0
4
 1.0 -1.0
 -1.0 1.0
4
 1.0 -1.0
 -1.0 1.0
4
 1.0 -1.0
 -1.0 1.0
4
 1.0 -1.0
 -1.0 1.0
4
 1.0 -1.0
 -1.0 1.0
4
 1.0 -1.0
 -1.0 1.0
4
 1.0 -1.0
 -1.0 1.0
4
 1.0 -1.0
 -1.0 1.0
4
 1.0 -1.0
 -1.0 1.0
4
 1.0 -1.0
 -1.0 1.0
4
 1.0 -1.0
 -1.0 1.0
4
 1.0 -1.0
 -1.0 1.0
4
 1.0 -1.0
 -1.0 1.0
4
 1.0 -1.0
 -1.0 1.0
4
 1.0 -1.0
 -1.0 1.0
4
 1.0 -1.0
 -1.0 1.0
4
 1.0 -1.0
 -1.0 1.0
4
 1.0 -1.0
 -1.0 1.0
4
 1.0 -1.0
 -1.0 1.0
4
 1.0 -1.0
 -1.0 1.0
4
 1.0 -1.0
 -1.0 1.0
4
 1.0 -1.0
 -1.0 1.0
4
 1.0 -1.0
 -1.0 1.0
4
 1.0 -1.0
 -1.0 1.0
4
 1.0 -1.0
 -1.0 1.0
4
 1.0 -1.0
 -1.0 1.0
4
 1.0 -1.0
 -1.0 1.0
4
 1.0 -1.0
 -1.0 1.0
4
 1.0 -1.0
 -1.0 1.0
4
 1.0 -1.0
 -1.0 1.0
4
 1.0 -1.0
 -1.0 1.0
4
 1.0 -1.0
 -1.0 1.0
4
 1.0 -1.0
 -1.0 1.0
4
 1.0 -1.0
 -1.0 1.0
4
 1.0 -1.0
 -1.0 1.0
4
 1.0 -1.0
 -1.0 1.0
4
 1.0 -1.0
 -1.0 1.0
4
 1.0 -1.0
 -1.0 1.0
4
 1.0 -1.0
 -1.0 1.0
4
 1.0 -1.0
 -1.0 1.0
4
 1.0 -1.0
 -1.0 1.0
4
 1.0 -1.0
 -1.0 1.0
4
 1.0 -1.0
 -1.0 1.0
4
 1.0 -1.0
 -1.0 1.0
4
 1.0 -1.0
 -1.0 1.0
4
 1.0 -1.0
 -1.0 1.0
4
 1.0 -1.0
 -1.0 1.0
4
 1.0 -1.0
 -1.0 1.0
4
 1.0 -1.0
 -1.0 1.0
4
 1.0 -1.0
 -1.0 1.0
4
 1.0 -1.0
 -1.0 1.0
4
 1.0 -1.0
 -1.0 1.0
4
 1.0 -1.0
 -1.0 1.0
4
 1.0 -1.0
 -1.0 1.0
4
 1.0 -1.0
 -1.0 1.0
4
 1.0 -1.0
 -1.0 1.0
4
 1.0 -1.0
 -1.0 1.0
4
 1.0 -1.0
 -1.0 1.0
4
 1.0 -1.0
 -1.0 1.0
4
 1.0 -1.0
 -1.0 1.0
4
 1.0 -1.0
 -1.0 1.0
4
 1.0 -1.0
 -1.0 1.0
4
 1.0 -1.0
 -1.0 1.0
4
 1.0 -1.0
 -1.0 1.0
4
 1.0 -1.0
 -1.0 1.0
4
 1.0 -1.0
 -1.0 1.0
4
 1.0 -1.0
 -1.0 1.0
4
 1.0 -1.0
 -1.0 1.0
4
 1.0 -1.0
 -1.0 1.0
4
 1.0 -1.0
 -1.0 1.0
4
 1.0 -1.0
 -1.0 1.0
4
 1.0 -1.0
 -1.0 1.0
4
 1.0 -1.0
 -1.0 1.0
4
 1.0 -1.0
 -1.0 1.0
4
 1.0 -1.0
 -1.0 1.0
4
 1.0 -1.0
 -1.0 1.0
4
 1.0 -1.0
 -1.0 1.0
4
 1.0 -1.0
 -1.0 1.0
4
 1.0 -1.0
 -1.0 1.0
4
 1.0 -1.0
 -1.0 1.0
4
 1.0 -1.0
 -1.0 1.0
4
 1.0 -1.0
 -1.0 1.0
4
 1.0 -1.0
 -1.0 1.0
4
 1.0 -1.0
 -1.0 1.0
4
 1.0 -1.0
 -1.0 1.0
4
 1.0 -1.0
 -1.0 1.0
4
 1.0 -1.0
 -1.0 1.0
4
 1.0 -1.0
 -1.0 1.0
4
 1.0 -1.0
 -1.0 1.0
4
 1.0 -1.0
 -1.0 1.0
4
 1.0 -1.0
 -1.0 1.0
4
 1.0 -1.0
 -1.0 1.0
4
 1.0 -1.0
 -1.0 1.0
4
 1.0 -1.0
 -1.0 1.0
4
 1.0 -1.0
 -1.0 1.0
4
 1.0 -1.0
 -1.0 1.0
4
 1.0 -1.0
 -1.0 1.0
4
 1.0 -1.0
 -1.0 1.0
4
 1.0 -1.0
 -1.0 1.0
4
 1.0 -1.0
 -1.0 1.0
4
 1.0 -1.0
 -1.0 1.0
4
 1.0 -1.0
 -1.0 1.0
4
 1.0 -1.0
 -1.0 1.0
4
 1.0 -1.0
 -1.0 1.0
4
 1.0 -1.0
 -1.0 1.0
4
 1.0 -1.0
 -1.0 1.0
4
 1.0 -1.0
 -1.0 1.0
4
 1.0 -1.0
 -1.0 1.0
4
 1.0 -1.0
 -1.0 1.0
4
 1.0 -1.0
 -1.0 1.0
4
 1.0 -1.0
 -1.0 1.0
4
 1.0 -1.0
 -1.0 1.0
4
 1.0 -1.0
 -1.0 1.0
4
 1.0 -1.0
 -1.0 1.0
4
 1.0 -1.0
 -1.0 1.0
4
 1.0 -1.0
 -1.0 1.0
4
 1.0 -1.0
 -1.0 1.0
4
 1.0 -1.0
 -1.0 1.0
4
 1.0 -1.0
 -1.0 1.0
4
 1.0 -1.0
 -1.0 1.0
4
 1.0 -1.0
 -1.0 1.0
4
 1.0 -1.0
 -1.0 1.0
4
 1.0 -1.0
 -1.0 1.0
4
 1.0 -1.0
 -1.0 1.0
4
 1.0 -1.0
 -1.0 1.0
4
 1.0 -1.0
 -1.0 1.0
4
 1.0 -1.0
 -1.0 1.0
4
 1.0 -1.0
 -1.0 1.0
4
 1.0 -1.0
 -1.0 1.0
4
 1.0 -1.0
 -1.0 1.0
4
 1.0 -1.0
 -1.0 1.0
4
 1.0 -1.0
 -1.0 1.0
4
 1.0 -1.0
 -1.0 1.0
4
 1.0 -1.0
 -1.0 1.0
